data;
param nombreJob := 6;
param nombreRessource := 3;
param duree := 1 8 2 5 3 4 4 7 5 8 6 9;
param capaciteRessource := 1 4 2 10 3 20;
param besoinRessource : 1 2 3 :=
                    1   2 7 9
                    2   4 5 9
                    3   1 1 2
                    4   1 3 10
                    5   1 6 8
                    6   4 4 6;
end;

